num_wann=64 ! 
exclude_bands = 1-8
num_bands=88 !NBANDS-excluded ones

Begin Projections
Pd: d
Ga: p
End Projections

num_iter = 0

dis_num_iter = 1500
!dis_win_min = -0.8
!dis_win_max = 12

#Fermi = 6.8

!dis_froz_min = 2.53
dis_froz_max = 10

bands_plot = true
bands_num_points  =  200
bands_plot_format gnuplot xmgrace

write_hr = true

begin kpoint_path
X     0.500000  0.000000  0.000000   M   0.500000  0.500000  0.000000
M     0.500000  0.500000  0.000000   G   0.000000  0.000000  0.000000
G     0.000000  0.000000  0.000000   R   0.500000  0.500000  0.500000
R     0.500000  0.500000  0.500000   X   0.500000  0.000000  0.000000
end kpoint_path


spinors = .true.

begin unit_cell_cart
     4.9629998     0.0000000     0.0000000
     0.0000000     4.9629998     0.0000000
     0.0000000     0.0000000     4.9629998
end unit_cell_cart

begin atoms_cart
Pd       0.6954594     0.6954594     0.6954594
Pd       1.7860406     4.2675405     3.1769592
Pd       4.2675405     3.1769592     1.7860406
Pd       3.1769592     1.7860406     4.2675405
Ga       4.1797135     4.1797135     4.1797135
Ga       3.2647862     0.7832863     1.6982136
Ga       0.7832863     1.6982136     3.2647862
Ga       1.6982136     3.2647862     0.7832863
end atoms_cart

mp_grid =     7     7     7

begin kpoints
      0.000000000000      0.000000000000      0.000000000000
      0.142857142857      0.000000000000      0.000000000000
      0.285714285714      0.000000000000      0.000000000000
      0.428571428571      0.000000000000      0.000000000000
     -0.428571428571      0.000000000000      0.000000000000
     -0.285714285714      0.000000000000      0.000000000000
     -0.142857142857      0.000000000000      0.000000000000
      0.000000000000      0.142857142857      0.000000000000
      0.142857142857      0.142857142857      0.000000000000
      0.285714285714      0.142857142857      0.000000000000
      0.428571428571      0.142857142857      0.000000000000
     -0.428571428571      0.142857142857      0.000000000000
     -0.285714285714      0.142857142857      0.000000000000
     -0.142857142857      0.142857142857      0.000000000000
      0.000000000000      0.285714285714      0.000000000000
      0.142857142857      0.285714285714      0.000000000000
      0.285714285714      0.285714285714      0.000000000000
      0.428571428571      0.285714285714      0.000000000000
     -0.428571428571      0.285714285714      0.000000000000
     -0.285714285714      0.285714285714      0.000000000000
     -0.142857142857      0.285714285714      0.000000000000
      0.000000000000      0.428571428571      0.000000000000
      0.142857142857      0.428571428571      0.000000000000
      0.285714285714      0.428571428571      0.000000000000
      0.428571428571      0.428571428571      0.000000000000
     -0.428571428571      0.428571428571      0.000000000000
     -0.285714285714      0.428571428571      0.000000000000
     -0.142857142857      0.428571428571      0.000000000000
      0.000000000000     -0.428571428571      0.000000000000
      0.142857142857     -0.428571428571      0.000000000000
      0.285714285714     -0.428571428571      0.000000000000
      0.428571428571     -0.428571428571      0.000000000000
     -0.428571428571     -0.428571428571      0.000000000000
     -0.285714285714     -0.428571428571      0.000000000000
     -0.142857142857     -0.428571428571      0.000000000000
      0.000000000000     -0.285714285714      0.000000000000
      0.142857142857     -0.285714285714      0.000000000000
      0.285714285714     -0.285714285714      0.000000000000
      0.428571428571     -0.285714285714      0.000000000000
     -0.428571428571     -0.285714285714      0.000000000000
     -0.285714285714     -0.285714285714      0.000000000000
     -0.142857142857     -0.285714285714      0.000000000000
      0.000000000000     -0.142857142857      0.000000000000
      0.142857142857     -0.142857142857      0.000000000000
      0.285714285714     -0.142857142857      0.000000000000
      0.428571428571     -0.142857142857      0.000000000000
     -0.428571428571     -0.142857142857      0.000000000000
     -0.285714285714     -0.142857142857      0.000000000000
     -0.142857142857     -0.142857142857      0.000000000000
      0.000000000000      0.000000000000      0.142857142857
      0.142857142857      0.000000000000      0.142857142857
      0.285714285714      0.000000000000      0.142857142857
      0.428571428571      0.000000000000      0.142857142857
     -0.428571428571      0.000000000000      0.142857142857
     -0.285714285714      0.000000000000      0.142857142857
     -0.142857142857      0.000000000000      0.142857142857
      0.000000000000      0.142857142857      0.142857142857
      0.142857142857      0.142857142857      0.142857142857
      0.285714285714      0.142857142857      0.142857142857
      0.428571428571      0.142857142857      0.142857142857
     -0.428571428571      0.142857142857      0.142857142857
     -0.285714285714      0.142857142857      0.142857142857
     -0.142857142857      0.142857142857      0.142857142857
      0.000000000000      0.285714285714      0.142857142857
      0.142857142857      0.285714285714      0.142857142857
      0.285714285714      0.285714285714      0.142857142857
      0.428571428571      0.285714285714      0.142857142857
     -0.428571428571      0.285714285714      0.142857142857
     -0.285714285714      0.285714285714      0.142857142857
     -0.142857142857      0.285714285714      0.142857142857
      0.000000000000      0.428571428571      0.142857142857
      0.142857142857      0.428571428571      0.142857142857
      0.285714285714      0.428571428571      0.142857142857
      0.428571428571      0.428571428571      0.142857142857
     -0.428571428571      0.428571428571      0.142857142857
     -0.285714285714      0.428571428571      0.142857142857
     -0.142857142857      0.428571428571      0.142857142857
      0.000000000000     -0.428571428571      0.142857142857
      0.142857142857     -0.428571428571      0.142857142857
      0.285714285714     -0.428571428571      0.142857142857
      0.428571428571     -0.428571428571      0.142857142857
     -0.428571428571     -0.428571428571      0.142857142857
     -0.285714285714     -0.428571428571      0.142857142857
     -0.142857142857     -0.428571428571      0.142857142857
      0.000000000000     -0.285714285714      0.142857142857
      0.142857142857     -0.285714285714      0.142857142857
      0.285714285714     -0.285714285714      0.142857142857
      0.428571428571     -0.285714285714      0.142857142857
     -0.428571428571     -0.285714285714      0.142857142857
     -0.285714285714     -0.285714285714      0.142857142857
     -0.142857142857     -0.285714285714      0.142857142857
      0.000000000000     -0.142857142857      0.142857142857
      0.142857142857     -0.142857142857      0.142857142857
      0.285714285714     -0.142857142857      0.142857142857
      0.428571428571     -0.142857142857      0.142857142857
     -0.428571428571     -0.142857142857      0.142857142857
     -0.285714285714     -0.142857142857      0.142857142857
     -0.142857142857     -0.142857142857      0.142857142857
      0.000000000000      0.000000000000      0.285714285714
      0.142857142857      0.000000000000      0.285714285714
      0.285714285714      0.000000000000      0.285714285714
      0.428571428571      0.000000000000      0.285714285714
     -0.428571428571      0.000000000000      0.285714285714
     -0.285714285714      0.000000000000      0.285714285714
     -0.142857142857      0.000000000000      0.285714285714
      0.000000000000      0.142857142857      0.285714285714
      0.142857142857      0.142857142857      0.285714285714
      0.285714285714      0.142857142857      0.285714285714
      0.428571428571      0.142857142857      0.285714285714
     -0.428571428571      0.142857142857      0.285714285714
     -0.285714285714      0.142857142857      0.285714285714
     -0.142857142857      0.142857142857      0.285714285714
      0.000000000000      0.285714285714      0.285714285714
      0.142857142857      0.285714285714      0.285714285714
      0.285714285714      0.285714285714      0.285714285714
      0.428571428571      0.285714285714      0.285714285714
     -0.428571428571      0.285714285714      0.285714285714
     -0.285714285714      0.285714285714      0.285714285714
     -0.142857142857      0.285714285714      0.285714285714
      0.000000000000      0.428571428571      0.285714285714
      0.142857142857      0.428571428571      0.285714285714
      0.285714285714      0.428571428571      0.285714285714
      0.428571428571      0.428571428571      0.285714285714
     -0.428571428571      0.428571428571      0.285714285714
     -0.285714285714      0.428571428571      0.285714285714
     -0.142857142857      0.428571428571      0.285714285714
      0.000000000000     -0.428571428571      0.285714285714
      0.142857142857     -0.428571428571      0.285714285714
      0.285714285714     -0.428571428571      0.285714285714
      0.428571428571     -0.428571428571      0.285714285714
     -0.428571428571     -0.428571428571      0.285714285714
     -0.285714285714     -0.428571428571      0.285714285714
     -0.142857142857     -0.428571428571      0.285714285714
      0.000000000000     -0.285714285714      0.285714285714
      0.142857142857     -0.285714285714      0.285714285714
      0.285714285714     -0.285714285714      0.285714285714
      0.428571428571     -0.285714285714      0.285714285714
     -0.428571428571     -0.285714285714      0.285714285714
     -0.285714285714     -0.285714285714      0.285714285714
     -0.142857142857     -0.285714285714      0.285714285714
      0.000000000000     -0.142857142857      0.285714285714
      0.142857142857     -0.142857142857      0.285714285714
      0.285714285714     -0.142857142857      0.285714285714
      0.428571428571     -0.142857142857      0.285714285714
     -0.428571428571     -0.142857142857      0.285714285714
     -0.285714285714     -0.142857142857      0.285714285714
     -0.142857142857     -0.142857142857      0.285714285714
      0.000000000000      0.000000000000      0.428571428571
      0.142857142857      0.000000000000      0.428571428571
      0.285714285714      0.000000000000      0.428571428571
      0.428571428571      0.000000000000      0.428571428571
     -0.428571428571      0.000000000000      0.428571428571
     -0.285714285714      0.000000000000      0.428571428571
     -0.142857142857      0.000000000000      0.428571428571
      0.000000000000      0.142857142857      0.428571428571
      0.142857142857      0.142857142857      0.428571428571
      0.285714285714      0.142857142857      0.428571428571
      0.428571428571      0.142857142857      0.428571428571
     -0.428571428571      0.142857142857      0.428571428571
     -0.285714285714      0.142857142857      0.428571428571
     -0.142857142857      0.142857142857      0.428571428571
      0.000000000000      0.285714285714      0.428571428571
      0.142857142857      0.285714285714      0.428571428571
      0.285714285714      0.285714285714      0.428571428571
      0.428571428571      0.285714285714      0.428571428571
     -0.428571428571      0.285714285714      0.428571428571
     -0.285714285714      0.285714285714      0.428571428571
     -0.142857142857      0.285714285714      0.428571428571
      0.000000000000      0.428571428571      0.428571428571
      0.142857142857      0.428571428571      0.428571428571
      0.285714285714      0.428571428571      0.428571428571
      0.428571428571      0.428571428571      0.428571428571
     -0.428571428571      0.428571428571      0.428571428571
     -0.285714285714      0.428571428571      0.428571428571
     -0.142857142857      0.428571428571      0.428571428571
      0.000000000000     -0.428571428571      0.428571428571
      0.142857142857     -0.428571428571      0.428571428571
      0.285714285714     -0.428571428571      0.428571428571
      0.428571428571     -0.428571428571      0.428571428571
     -0.428571428571     -0.428571428571      0.428571428571
     -0.285714285714     -0.428571428571      0.428571428571
     -0.142857142857     -0.428571428571      0.428571428571
      0.000000000000     -0.285714285714      0.428571428571
      0.142857142857     -0.285714285714      0.428571428571
      0.285714285714     -0.285714285714      0.428571428571
      0.428571428571     -0.285714285714      0.428571428571
     -0.428571428571     -0.285714285714      0.428571428571
     -0.285714285714     -0.285714285714      0.428571428571
     -0.142857142857     -0.285714285714      0.428571428571
      0.000000000000     -0.142857142857      0.428571428571
      0.142857142857     -0.142857142857      0.428571428571
      0.285714285714     -0.142857142857      0.428571428571
      0.428571428571     -0.142857142857      0.428571428571
     -0.428571428571     -0.142857142857      0.428571428571
     -0.285714285714     -0.142857142857      0.428571428571
     -0.142857142857     -0.142857142857      0.428571428571
      0.000000000000      0.000000000000     -0.428571428571
      0.142857142857      0.000000000000     -0.428571428571
      0.285714285714      0.000000000000     -0.428571428571
      0.428571428571      0.000000000000     -0.428571428571
     -0.428571428571      0.000000000000     -0.428571428571
     -0.285714285714      0.000000000000     -0.428571428571
     -0.142857142857      0.000000000000     -0.428571428571
      0.000000000000      0.142857142857     -0.428571428571
      0.142857142857      0.142857142857     -0.428571428571
      0.285714285714      0.142857142857     -0.428571428571
      0.428571428571      0.142857142857     -0.428571428571
     -0.428571428571      0.142857142857     -0.428571428571
     -0.285714285714      0.142857142857     -0.428571428571
     -0.142857142857      0.142857142857     -0.428571428571
      0.000000000000      0.285714285714     -0.428571428571
      0.142857142857      0.285714285714     -0.428571428571
      0.285714285714      0.285714285714     -0.428571428571
      0.428571428571      0.285714285714     -0.428571428571
     -0.428571428571      0.285714285714     -0.428571428571
     -0.285714285714      0.285714285714     -0.428571428571
     -0.142857142857      0.285714285714     -0.428571428571
      0.000000000000      0.428571428571     -0.428571428571
      0.142857142857      0.428571428571     -0.428571428571
      0.285714285714      0.428571428571     -0.428571428571
      0.428571428571      0.428571428571     -0.428571428571
     -0.428571428571      0.428571428571     -0.428571428571
     -0.285714285714      0.428571428571     -0.428571428571
     -0.142857142857      0.428571428571     -0.428571428571
      0.000000000000     -0.428571428571     -0.428571428571
      0.142857142857     -0.428571428571     -0.428571428571
      0.285714285714     -0.428571428571     -0.428571428571
      0.428571428571     -0.428571428571     -0.428571428571
     -0.428571428571     -0.428571428571     -0.428571428571
     -0.285714285714     -0.428571428571     -0.428571428571
     -0.142857142857     -0.428571428571     -0.428571428571
      0.000000000000     -0.285714285714     -0.428571428571
      0.142857142857     -0.285714285714     -0.428571428571
      0.285714285714     -0.285714285714     -0.428571428571
      0.428571428571     -0.285714285714     -0.428571428571
     -0.428571428571     -0.285714285714     -0.428571428571
     -0.285714285714     -0.285714285714     -0.428571428571
     -0.142857142857     -0.285714285714     -0.428571428571
      0.000000000000     -0.142857142857     -0.428571428571
      0.142857142857     -0.142857142857     -0.428571428571
      0.285714285714     -0.142857142857     -0.428571428571
      0.428571428571     -0.142857142857     -0.428571428571
     -0.428571428571     -0.142857142857     -0.428571428571
     -0.285714285714     -0.142857142857     -0.428571428571
     -0.142857142857     -0.142857142857     -0.428571428571
      0.000000000000      0.000000000000     -0.285714285714
      0.142857142857      0.000000000000     -0.285714285714
      0.285714285714      0.000000000000     -0.285714285714
      0.428571428571      0.000000000000     -0.285714285714
     -0.428571428571      0.000000000000     -0.285714285714
     -0.285714285714      0.000000000000     -0.285714285714
     -0.142857142857      0.000000000000     -0.285714285714
      0.000000000000      0.142857142857     -0.285714285714
      0.142857142857      0.142857142857     -0.285714285714
      0.285714285714      0.142857142857     -0.285714285714
      0.428571428571      0.142857142857     -0.285714285714
     -0.428571428571      0.142857142857     -0.285714285714
     -0.285714285714      0.142857142857     -0.285714285714
     -0.142857142857      0.142857142857     -0.285714285714
      0.000000000000      0.285714285714     -0.285714285714
      0.142857142857      0.285714285714     -0.285714285714
      0.285714285714      0.285714285714     -0.285714285714
      0.428571428571      0.285714285714     -0.285714285714
     -0.428571428571      0.285714285714     -0.285714285714
     -0.285714285714      0.285714285714     -0.285714285714
     -0.142857142857      0.285714285714     -0.285714285714
      0.000000000000      0.428571428571     -0.285714285714
      0.142857142857      0.428571428571     -0.285714285714
      0.285714285714      0.428571428571     -0.285714285714
      0.428571428571      0.428571428571     -0.285714285714
     -0.428571428571      0.428571428571     -0.285714285714
     -0.285714285714      0.428571428571     -0.285714285714
     -0.142857142857      0.428571428571     -0.285714285714
      0.000000000000     -0.428571428571     -0.285714285714
      0.142857142857     -0.428571428571     -0.285714285714
      0.285714285714     -0.428571428571     -0.285714285714
      0.428571428571     -0.428571428571     -0.285714285714
     -0.428571428571     -0.428571428571     -0.285714285714
     -0.285714285714     -0.428571428571     -0.285714285714
     -0.142857142857     -0.428571428571     -0.285714285714
      0.000000000000     -0.285714285714     -0.285714285714
      0.142857142857     -0.285714285714     -0.285714285714
      0.285714285714     -0.285714285714     -0.285714285714
      0.428571428571     -0.285714285714     -0.285714285714
     -0.428571428571     -0.285714285714     -0.285714285714
     -0.285714285714     -0.285714285714     -0.285714285714
     -0.142857142857     -0.285714285714     -0.285714285714
      0.000000000000     -0.142857142857     -0.285714285714
      0.142857142857     -0.142857142857     -0.285714285714
      0.285714285714     -0.142857142857     -0.285714285714
      0.428571428571     -0.142857142857     -0.285714285714
     -0.428571428571     -0.142857142857     -0.285714285714
     -0.285714285714     -0.142857142857     -0.285714285714
     -0.142857142857     -0.142857142857     -0.285714285714
      0.000000000000      0.000000000000     -0.142857142857
      0.142857142857      0.000000000000     -0.142857142857
      0.285714285714      0.000000000000     -0.142857142857
      0.428571428571      0.000000000000     -0.142857142857
     -0.428571428571      0.000000000000     -0.142857142857
     -0.285714285714      0.000000000000     -0.142857142857
     -0.142857142857      0.000000000000     -0.142857142857
      0.000000000000      0.142857142857     -0.142857142857
      0.142857142857      0.142857142857     -0.142857142857
      0.285714285714      0.142857142857     -0.142857142857
      0.428571428571      0.142857142857     -0.142857142857
     -0.428571428571      0.142857142857     -0.142857142857
     -0.285714285714      0.142857142857     -0.142857142857
     -0.142857142857      0.142857142857     -0.142857142857
      0.000000000000      0.285714285714     -0.142857142857
      0.142857142857      0.285714285714     -0.142857142857
      0.285714285714      0.285714285714     -0.142857142857
      0.428571428571      0.285714285714     -0.142857142857
     -0.428571428571      0.285714285714     -0.142857142857
     -0.285714285714      0.285714285714     -0.142857142857
     -0.142857142857      0.285714285714     -0.142857142857
      0.000000000000      0.428571428571     -0.142857142857
      0.142857142857      0.428571428571     -0.142857142857
      0.285714285714      0.428571428571     -0.142857142857
      0.428571428571      0.428571428571     -0.142857142857
     -0.428571428571      0.428571428571     -0.142857142857
     -0.285714285714      0.428571428571     -0.142857142857
     -0.142857142857      0.428571428571     -0.142857142857
      0.000000000000     -0.428571428571     -0.142857142857
      0.142857142857     -0.428571428571     -0.142857142857
      0.285714285714     -0.428571428571     -0.142857142857
      0.428571428571     -0.428571428571     -0.142857142857
     -0.428571428571     -0.428571428571     -0.142857142857
     -0.285714285714     -0.428571428571     -0.142857142857
     -0.142857142857     -0.428571428571     -0.142857142857
      0.000000000000     -0.285714285714     -0.142857142857
      0.142857142857     -0.285714285714     -0.142857142857
      0.285714285714     -0.285714285714     -0.142857142857
      0.428571428571     -0.285714285714     -0.142857142857
     -0.428571428571     -0.285714285714     -0.142857142857
     -0.285714285714     -0.285714285714     -0.142857142857
     -0.142857142857     -0.285714285714     -0.142857142857
      0.000000000000     -0.142857142857     -0.142857142857
      0.142857142857     -0.142857142857     -0.142857142857
      0.285714285714     -0.142857142857     -0.142857142857
      0.428571428571     -0.142857142857     -0.142857142857
     -0.428571428571     -0.142857142857     -0.142857142857
     -0.285714285714     -0.142857142857     -0.142857142857
     -0.142857142857     -0.142857142857     -0.142857142857
end kpoints
