P_ml                                    
1.0
        4.5881080627         0.0000000000         0.0000000000
        0.0000000000         3.2958335876         0.0000000000
        0.0000000000         0.0000000000        25.2886753082
    P
    4
Direct
     0.588232815         0.000000000         0.458285034
     0.411767393         0.000000000         0.541717470
     0.088232704         0.499999881         0.541717470
     0.911767304         0.499999881         0.458285034
