num_wann = 24          # number of wannier states
num_bands= 60           # number of bloch bands
exclude_bands =61-64

begin projections
P:p
end projections

!use_bloch_phase = T
fermi_energy = -2.8123
num_iter = 0

!disentanglememt procedure
dis_froz_min=-5.8
dis_froz_max= 0.81
dis_num_iter= 1000
dis_conv_tol=1.0E-12


# GW energy window for t2g states
#!dis_win_min = 7.4
#!dis_win_max = 9.95


!#hr_plot = true
write_hr = true
!#!guiding_centres  =   true

begin kpoint_path
Y   0.0000  0.5000   0.0000    G  0.0000  0.0000   0.0000
G   0.0000  0.0000   0.0000    R  0.5000  0.5000   0.0000   
R   0.5000  0.5000   0.0000    X  0.5000  0.0000   0.0000 
X   0.5000  0.0000   0.0000    G  0.0000  0.0000   0.0000   
end kpoint_path

!## Bandstructure plot 
!##restart          =   plot
bands_plot        =   true
bands_num_points  =  200
bands_plot_format gnuplot xmgrace


spinors = .true.

begin unit_cell_cart
     4.5881081     0.0000000     0.0000000
     0.0000000     3.2958336     0.0000000
     0.0000000     0.0000000    25.2886753
end unit_cell_cart

begin atoms_cart
P        2.6988757     0.0000000    11.5894214
P        1.8892333     0.0000000    13.6993172
P        0.4048212     1.6479164    13.6993172
P        4.1832869     1.6479164    11.5894214
end atoms_cart

mp_grid =    19    21     1

begin kpoints
      0.000000000000      0.000000000000      0.000000000000
      0.052631578947      0.000000000000      0.000000000000
      0.105263157895      0.000000000000      0.000000000000
      0.157894736842      0.000000000000      0.000000000000
      0.210526315789      0.000000000000      0.000000000000
      0.263157894737      0.000000000000      0.000000000000
      0.315789473684      0.000000000000      0.000000000000
      0.368421052632      0.000000000000      0.000000000000
      0.421052631579      0.000000000000      0.000000000000
      0.473684210526      0.000000000000      0.000000000000
     -0.473684210526      0.000000000000      0.000000000000
     -0.421052631579      0.000000000000      0.000000000000
     -0.368421052632      0.000000000000      0.000000000000
     -0.315789473684      0.000000000000      0.000000000000
     -0.263157894737      0.000000000000      0.000000000000
     -0.210526315789      0.000000000000      0.000000000000
     -0.157894736842      0.000000000000      0.000000000000
     -0.105263157895      0.000000000000      0.000000000000
     -0.052631578947      0.000000000000      0.000000000000
      0.000000000000      0.047619047619      0.000000000000
      0.052631578947      0.047619047619      0.000000000000
      0.105263157895      0.047619047619      0.000000000000
      0.157894736842      0.047619047619      0.000000000000
      0.210526315789      0.047619047619      0.000000000000
      0.263157894737      0.047619047619      0.000000000000
      0.315789473684      0.047619047619      0.000000000000
      0.368421052632      0.047619047619      0.000000000000
      0.421052631579      0.047619047619      0.000000000000
      0.473684210526      0.047619047619      0.000000000000
     -0.473684210526      0.047619047619      0.000000000000
     -0.421052631579      0.047619047619      0.000000000000
     -0.368421052632      0.047619047619      0.000000000000
     -0.315789473684      0.047619047619      0.000000000000
     -0.263157894737      0.047619047619      0.000000000000
     -0.210526315789      0.047619047619      0.000000000000
     -0.157894736842      0.047619047619      0.000000000000
     -0.105263157895      0.047619047619      0.000000000000
     -0.052631578947      0.047619047619      0.000000000000
      0.000000000000      0.095238095238      0.000000000000
      0.052631578947      0.095238095238      0.000000000000
      0.105263157895      0.095238095238      0.000000000000
      0.157894736842      0.095238095238      0.000000000000
      0.210526315789      0.095238095238      0.000000000000
      0.263157894737      0.095238095238      0.000000000000
      0.315789473684      0.095238095238      0.000000000000
      0.368421052632      0.095238095238      0.000000000000
      0.421052631579      0.095238095238      0.000000000000
      0.473684210526      0.095238095238      0.000000000000
     -0.473684210526      0.095238095238      0.000000000000
     -0.421052631579      0.095238095238      0.000000000000
     -0.368421052632      0.095238095238      0.000000000000
     -0.315789473684      0.095238095238      0.000000000000
     -0.263157894737      0.095238095238      0.000000000000
     -0.210526315789      0.095238095238      0.000000000000
     -0.157894736842      0.095238095238      0.000000000000
     -0.105263157895      0.095238095238      0.000000000000
     -0.052631578947      0.095238095238      0.000000000000
      0.000000000000      0.142857142857      0.000000000000
      0.052631578947      0.142857142857      0.000000000000
      0.105263157895      0.142857142857      0.000000000000
      0.157894736842      0.142857142857      0.000000000000
      0.210526315789      0.142857142857      0.000000000000
      0.263157894737      0.142857142857      0.000000000000
      0.315789473684      0.142857142857      0.000000000000
      0.368421052632      0.142857142857      0.000000000000
      0.421052631579      0.142857142857      0.000000000000
      0.473684210526      0.142857142857      0.000000000000
     -0.473684210526      0.142857142857      0.000000000000
     -0.421052631579      0.142857142857      0.000000000000
     -0.368421052632      0.142857142857      0.000000000000
     -0.315789473684      0.142857142857      0.000000000000
     -0.263157894737      0.142857142857      0.000000000000
     -0.210526315789      0.142857142857      0.000000000000
     -0.157894736842      0.142857142857      0.000000000000
     -0.105263157895      0.142857142857      0.000000000000
     -0.052631578947      0.142857142857      0.000000000000
      0.000000000000      0.190476190476      0.000000000000
      0.052631578947      0.190476190476      0.000000000000
      0.105263157895      0.190476190476      0.000000000000
      0.157894736842      0.190476190476      0.000000000000
      0.210526315789      0.190476190476      0.000000000000
      0.263157894737      0.190476190476      0.000000000000
      0.315789473684      0.190476190476      0.000000000000
      0.368421052632      0.190476190476      0.000000000000
      0.421052631579      0.190476190476      0.000000000000
      0.473684210526      0.190476190476      0.000000000000
     -0.473684210526      0.190476190476      0.000000000000
     -0.421052631579      0.190476190476      0.000000000000
     -0.368421052632      0.190476190476      0.000000000000
     -0.315789473684      0.190476190476      0.000000000000
     -0.263157894737      0.190476190476      0.000000000000
     -0.210526315789      0.190476190476      0.000000000000
     -0.157894736842      0.190476190476      0.000000000000
     -0.105263157895      0.190476190476      0.000000000000
     -0.052631578947      0.190476190476      0.000000000000
      0.000000000000      0.238095238095      0.000000000000
      0.052631578947      0.238095238095      0.000000000000
      0.105263157895      0.238095238095      0.000000000000
      0.157894736842      0.238095238095      0.000000000000
      0.210526315789      0.238095238095      0.000000000000
      0.263157894737      0.238095238095      0.000000000000
      0.315789473684      0.238095238095      0.000000000000
      0.368421052632      0.238095238095      0.000000000000
      0.421052631579      0.238095238095      0.000000000000
      0.473684210526      0.238095238095      0.000000000000
     -0.473684210526      0.238095238095      0.000000000000
     -0.421052631579      0.238095238095      0.000000000000
     -0.368421052632      0.238095238095      0.000000000000
     -0.315789473684      0.238095238095      0.000000000000
     -0.263157894737      0.238095238095      0.000000000000
     -0.210526315789      0.238095238095      0.000000000000
     -0.157894736842      0.238095238095      0.000000000000
     -0.105263157895      0.238095238095      0.000000000000
     -0.052631578947      0.238095238095      0.000000000000
      0.000000000000      0.285714285714      0.000000000000
      0.052631578947      0.285714285714      0.000000000000
      0.105263157895      0.285714285714      0.000000000000
      0.157894736842      0.285714285714      0.000000000000
      0.210526315789      0.285714285714      0.000000000000
      0.263157894737      0.285714285714      0.000000000000
      0.315789473684      0.285714285714      0.000000000000
      0.368421052632      0.285714285714      0.000000000000
      0.421052631579      0.285714285714      0.000000000000
      0.473684210526      0.285714285714      0.000000000000
     -0.473684210526      0.285714285714      0.000000000000
     -0.421052631579      0.285714285714      0.000000000000
     -0.368421052632      0.285714285714      0.000000000000
     -0.315789473684      0.285714285714      0.000000000000
     -0.263157894737      0.285714285714      0.000000000000
     -0.210526315789      0.285714285714      0.000000000000
     -0.157894736842      0.285714285714      0.000000000000
     -0.105263157895      0.285714285714      0.000000000000
     -0.052631578947      0.285714285714      0.000000000000
      0.000000000000      0.333333333333      0.000000000000
      0.052631578947      0.333333333333      0.000000000000
      0.105263157895      0.333333333333      0.000000000000
      0.157894736842      0.333333333333      0.000000000000
      0.210526315789      0.333333333333      0.000000000000
      0.263157894737      0.333333333333      0.000000000000
      0.315789473684      0.333333333333      0.000000000000
      0.368421052632      0.333333333333      0.000000000000
      0.421052631579      0.333333333333      0.000000000000
      0.473684210526      0.333333333333      0.000000000000
     -0.473684210526      0.333333333333      0.000000000000
     -0.421052631579      0.333333333333      0.000000000000
     -0.368421052632      0.333333333333      0.000000000000
     -0.315789473684      0.333333333333      0.000000000000
     -0.263157894737      0.333333333333      0.000000000000
     -0.210526315789      0.333333333333      0.000000000000
     -0.157894736842      0.333333333333      0.000000000000
     -0.105263157895      0.333333333333      0.000000000000
     -0.052631578947      0.333333333333      0.000000000000
      0.000000000000      0.380952380952      0.000000000000
      0.052631578947      0.380952380952      0.000000000000
      0.105263157895      0.380952380952      0.000000000000
      0.157894736842      0.380952380952      0.000000000000
      0.210526315789      0.380952380952      0.000000000000
      0.263157894737      0.380952380952      0.000000000000
      0.315789473684      0.380952380952      0.000000000000
      0.368421052632      0.380952380952      0.000000000000
      0.421052631579      0.380952380952      0.000000000000
      0.473684210526      0.380952380952      0.000000000000
     -0.473684210526      0.380952380952      0.000000000000
     -0.421052631579      0.380952380952      0.000000000000
     -0.368421052632      0.380952380952      0.000000000000
     -0.315789473684      0.380952380952      0.000000000000
     -0.263157894737      0.380952380952      0.000000000000
     -0.210526315789      0.380952380952      0.000000000000
     -0.157894736842      0.380952380952      0.000000000000
     -0.105263157895      0.380952380952      0.000000000000
     -0.052631578947      0.380952380952      0.000000000000
      0.000000000000      0.428571428571      0.000000000000
      0.052631578947      0.428571428571      0.000000000000
      0.105263157895      0.428571428571      0.000000000000
      0.157894736842      0.428571428571      0.000000000000
      0.210526315789      0.428571428571      0.000000000000
      0.263157894737      0.428571428571      0.000000000000
      0.315789473684      0.428571428571      0.000000000000
      0.368421052632      0.428571428571      0.000000000000
      0.421052631579      0.428571428571      0.000000000000
      0.473684210526      0.428571428571      0.000000000000
     -0.473684210526      0.428571428571      0.000000000000
     -0.421052631579      0.428571428571      0.000000000000
     -0.368421052632      0.428571428571      0.000000000000
     -0.315789473684      0.428571428571      0.000000000000
     -0.263157894737      0.428571428571      0.000000000000
     -0.210526315789      0.428571428571      0.000000000000
     -0.157894736842      0.428571428571      0.000000000000
     -0.105263157895      0.428571428571      0.000000000000
     -0.052631578947      0.428571428571      0.000000000000
      0.000000000000      0.476190476190      0.000000000000
      0.052631578947      0.476190476190      0.000000000000
      0.105263157895      0.476190476190      0.000000000000
      0.157894736842      0.476190476190      0.000000000000
      0.210526315789      0.476190476190      0.000000000000
      0.263157894737      0.476190476190      0.000000000000
      0.315789473684      0.476190476190      0.000000000000
      0.368421052632      0.476190476190      0.000000000000
      0.421052631579      0.476190476190      0.000000000000
      0.473684210526      0.476190476190      0.000000000000
     -0.473684210526      0.476190476190      0.000000000000
     -0.421052631579      0.476190476190      0.000000000000
     -0.368421052632      0.476190476190      0.000000000000
     -0.315789473684      0.476190476190      0.000000000000
     -0.263157894737      0.476190476190      0.000000000000
     -0.210526315789      0.476190476190      0.000000000000
     -0.157894736842      0.476190476190      0.000000000000
     -0.105263157895      0.476190476190      0.000000000000
     -0.052631578947      0.476190476190      0.000000000000
      0.000000000000     -0.476190476190      0.000000000000
      0.052631578947     -0.476190476190      0.000000000000
      0.105263157895     -0.476190476190      0.000000000000
      0.157894736842     -0.476190476190      0.000000000000
      0.210526315789     -0.476190476190      0.000000000000
      0.263157894737     -0.476190476190      0.000000000000
      0.315789473684     -0.476190476190      0.000000000000
      0.368421052632     -0.476190476190      0.000000000000
      0.421052631579     -0.476190476190      0.000000000000
      0.473684210526     -0.476190476190      0.000000000000
     -0.473684210526     -0.476190476190      0.000000000000
     -0.421052631579     -0.476190476190      0.000000000000
     -0.368421052632     -0.476190476190      0.000000000000
     -0.315789473684     -0.476190476190      0.000000000000
     -0.263157894737     -0.476190476190      0.000000000000
     -0.210526315789     -0.476190476190      0.000000000000
     -0.157894736842     -0.476190476190      0.000000000000
     -0.105263157895     -0.476190476190      0.000000000000
     -0.052631578947     -0.476190476190      0.000000000000
      0.000000000000     -0.428571428571      0.000000000000
      0.052631578947     -0.428571428571      0.000000000000
      0.105263157895     -0.428571428571      0.000000000000
      0.157894736842     -0.428571428571      0.000000000000
      0.210526315789     -0.428571428571      0.000000000000
      0.263157894737     -0.428571428571      0.000000000000
      0.315789473684     -0.428571428571      0.000000000000
      0.368421052632     -0.428571428571      0.000000000000
      0.421052631579     -0.428571428571      0.000000000000
      0.473684210526     -0.428571428571      0.000000000000
     -0.473684210526     -0.428571428571      0.000000000000
     -0.421052631579     -0.428571428571      0.000000000000
     -0.368421052632     -0.428571428571      0.000000000000
     -0.315789473684     -0.428571428571      0.000000000000
     -0.263157894737     -0.428571428571      0.000000000000
     -0.210526315789     -0.428571428571      0.000000000000
     -0.157894736842     -0.428571428571      0.000000000000
     -0.105263157895     -0.428571428571      0.000000000000
     -0.052631578947     -0.428571428571      0.000000000000
      0.000000000000     -0.380952380952      0.000000000000
      0.052631578947     -0.380952380952      0.000000000000
      0.105263157895     -0.380952380952      0.000000000000
      0.157894736842     -0.380952380952      0.000000000000
      0.210526315789     -0.380952380952      0.000000000000
      0.263157894737     -0.380952380952      0.000000000000
      0.315789473684     -0.380952380952      0.000000000000
      0.368421052632     -0.380952380952      0.000000000000
      0.421052631579     -0.380952380952      0.000000000000
      0.473684210526     -0.380952380952      0.000000000000
     -0.473684210526     -0.380952380952      0.000000000000
     -0.421052631579     -0.380952380952      0.000000000000
     -0.368421052632     -0.380952380952      0.000000000000
     -0.315789473684     -0.380952380952      0.000000000000
     -0.263157894737     -0.380952380952      0.000000000000
     -0.210526315789     -0.380952380952      0.000000000000
     -0.157894736842     -0.380952380952      0.000000000000
     -0.105263157895     -0.380952380952      0.000000000000
     -0.052631578947     -0.380952380952      0.000000000000
      0.000000000000     -0.333333333333      0.000000000000
      0.052631578947     -0.333333333333      0.000000000000
      0.105263157895     -0.333333333333      0.000000000000
      0.157894736842     -0.333333333333      0.000000000000
      0.210526315789     -0.333333333333      0.000000000000
      0.263157894737     -0.333333333333      0.000000000000
      0.315789473684     -0.333333333333      0.000000000000
      0.368421052632     -0.333333333333      0.000000000000
      0.421052631579     -0.333333333333      0.000000000000
      0.473684210526     -0.333333333333      0.000000000000
     -0.473684210526     -0.333333333333      0.000000000000
     -0.421052631579     -0.333333333333      0.000000000000
     -0.368421052632     -0.333333333333      0.000000000000
     -0.315789473684     -0.333333333333      0.000000000000
     -0.263157894737     -0.333333333333      0.000000000000
     -0.210526315789     -0.333333333333      0.000000000000
     -0.157894736842     -0.333333333333      0.000000000000
     -0.105263157895     -0.333333333333      0.000000000000
     -0.052631578947     -0.333333333333      0.000000000000
      0.000000000000     -0.285714285714      0.000000000000
      0.052631578947     -0.285714285714      0.000000000000
      0.105263157895     -0.285714285714      0.000000000000
      0.157894736842     -0.285714285714      0.000000000000
      0.210526315789     -0.285714285714      0.000000000000
      0.263157894737     -0.285714285714      0.000000000000
      0.315789473684     -0.285714285714      0.000000000000
      0.368421052632     -0.285714285714      0.000000000000
      0.421052631579     -0.285714285714      0.000000000000
      0.473684210526     -0.285714285714      0.000000000000
     -0.473684210526     -0.285714285714      0.000000000000
     -0.421052631579     -0.285714285714      0.000000000000
     -0.368421052632     -0.285714285714      0.000000000000
     -0.315789473684     -0.285714285714      0.000000000000
     -0.263157894737     -0.285714285714      0.000000000000
     -0.210526315789     -0.285714285714      0.000000000000
     -0.157894736842     -0.285714285714      0.000000000000
     -0.105263157895     -0.285714285714      0.000000000000
     -0.052631578947     -0.285714285714      0.000000000000
      0.000000000000     -0.238095238095      0.000000000000
      0.052631578947     -0.238095238095      0.000000000000
      0.105263157895     -0.238095238095      0.000000000000
      0.157894736842     -0.238095238095      0.000000000000
      0.210526315789     -0.238095238095      0.000000000000
      0.263157894737     -0.238095238095      0.000000000000
      0.315789473684     -0.238095238095      0.000000000000
      0.368421052632     -0.238095238095      0.000000000000
      0.421052631579     -0.238095238095      0.000000000000
      0.473684210526     -0.238095238095      0.000000000000
     -0.473684210526     -0.238095238095      0.000000000000
     -0.421052631579     -0.238095238095      0.000000000000
     -0.368421052632     -0.238095238095      0.000000000000
     -0.315789473684     -0.238095238095      0.000000000000
     -0.263157894737     -0.238095238095      0.000000000000
     -0.210526315789     -0.238095238095      0.000000000000
     -0.157894736842     -0.238095238095      0.000000000000
     -0.105263157895     -0.238095238095      0.000000000000
     -0.052631578947     -0.238095238095      0.000000000000
      0.000000000000     -0.190476190476      0.000000000000
      0.052631578947     -0.190476190476      0.000000000000
      0.105263157895     -0.190476190476      0.000000000000
      0.157894736842     -0.190476190476      0.000000000000
      0.210526315789     -0.190476190476      0.000000000000
      0.263157894737     -0.190476190476      0.000000000000
      0.315789473684     -0.190476190476      0.000000000000
      0.368421052632     -0.190476190476      0.000000000000
      0.421052631579     -0.190476190476      0.000000000000
      0.473684210526     -0.190476190476      0.000000000000
     -0.473684210526     -0.190476190476      0.000000000000
     -0.421052631579     -0.190476190476      0.000000000000
     -0.368421052632     -0.190476190476      0.000000000000
     -0.315789473684     -0.190476190476      0.000000000000
     -0.263157894737     -0.190476190476      0.000000000000
     -0.210526315789     -0.190476190476      0.000000000000
     -0.157894736842     -0.190476190476      0.000000000000
     -0.105263157895     -0.190476190476      0.000000000000
     -0.052631578947     -0.190476190476      0.000000000000
      0.000000000000     -0.142857142857      0.000000000000
      0.052631578947     -0.142857142857      0.000000000000
      0.105263157895     -0.142857142857      0.000000000000
      0.157894736842     -0.142857142857      0.000000000000
      0.210526315789     -0.142857142857      0.000000000000
      0.263157894737     -0.142857142857      0.000000000000
      0.315789473684     -0.142857142857      0.000000000000
      0.368421052632     -0.142857142857      0.000000000000
      0.421052631579     -0.142857142857      0.000000000000
      0.473684210526     -0.142857142857      0.000000000000
     -0.473684210526     -0.142857142857      0.000000000000
     -0.421052631579     -0.142857142857      0.000000000000
     -0.368421052632     -0.142857142857      0.000000000000
     -0.315789473684     -0.142857142857      0.000000000000
     -0.263157894737     -0.142857142857      0.000000000000
     -0.210526315789     -0.142857142857      0.000000000000
     -0.157894736842     -0.142857142857      0.000000000000
     -0.105263157895     -0.142857142857      0.000000000000
     -0.052631578947     -0.142857142857      0.000000000000
      0.000000000000     -0.095238095238      0.000000000000
      0.052631578947     -0.095238095238      0.000000000000
      0.105263157895     -0.095238095238      0.000000000000
      0.157894736842     -0.095238095238      0.000000000000
      0.210526315789     -0.095238095238      0.000000000000
      0.263157894737     -0.095238095238      0.000000000000
      0.315789473684     -0.095238095238      0.000000000000
      0.368421052632     -0.095238095238      0.000000000000
      0.421052631579     -0.095238095238      0.000000000000
      0.473684210526     -0.095238095238      0.000000000000
     -0.473684210526     -0.095238095238      0.000000000000
     -0.421052631579     -0.095238095238      0.000000000000
     -0.368421052632     -0.095238095238      0.000000000000
     -0.315789473684     -0.095238095238      0.000000000000
     -0.263157894737     -0.095238095238      0.000000000000
     -0.210526315789     -0.095238095238      0.000000000000
     -0.157894736842     -0.095238095238      0.000000000000
     -0.105263157895     -0.095238095238      0.000000000000
     -0.052631578947     -0.095238095238      0.000000000000
      0.000000000000     -0.047619047619      0.000000000000
      0.052631578947     -0.047619047619      0.000000000000
      0.105263157895     -0.047619047619      0.000000000000
      0.157894736842     -0.047619047619      0.000000000000
      0.210526315789     -0.047619047619      0.000000000000
      0.263157894737     -0.047619047619      0.000000000000
      0.315789473684     -0.047619047619      0.000000000000
      0.368421052632     -0.047619047619      0.000000000000
      0.421052631579     -0.047619047619      0.000000000000
      0.473684210526     -0.047619047619      0.000000000000
     -0.473684210526     -0.047619047619      0.000000000000
     -0.421052631579     -0.047619047619      0.000000000000
     -0.368421052632     -0.047619047619      0.000000000000
     -0.315789473684     -0.047619047619      0.000000000000
     -0.263157894737     -0.047619047619      0.000000000000
     -0.210526315789     -0.047619047619      0.000000000000
     -0.157894736842     -0.047619047619      0.000000000000
     -0.105263157895     -0.047619047619      0.000000000000
     -0.052631578947     -0.047619047619      0.000000000000
end kpoints
