num_wann=64 ! 
exclude_bands = 1-8
num_bands=88 !NBANDS-excluded ones

Begin Projections
Pd: d
Ga: p
End Projections

num_iter = 0

dis_num_iter = 1500
!dis_win_min = -0.8
!dis_win_max = 12

#Fermi = 6.8

!dis_froz_min = 2.53
dis_froz_max = 10

bands_plot = true
bands_num_points  =  200
bands_plot_format gnuplot xmgrace

write_hr = true

begin kpoint_path
X     0.500000  0.000000  0.000000   M   0.500000  0.500000  0.000000
M     0.500000  0.500000  0.000000   G   0.000000  0.000000  0.000000
G     0.000000  0.000000  0.000000   R   0.500000  0.500000  0.500000
R     0.500000  0.500000  0.500000   X   0.500000  0.000000  0.000000
end kpoint_path



spinors = .true.

begin unit_cell_cart
     4.9629998     0.0000000     0.0000000
     0.0000000     4.9629998     0.0000000
     0.0000000     0.0000000     4.9629998
end unit_cell_cart

begin atoms_cart
Pd       4.2674666     4.2674666     4.2674666
Pd       3.1770331     0.6955332     1.7859667
Pd       0.6955332     1.7859667     3.1770331
Pd       1.7859667     3.1770331     0.6955332
Ga       0.7833061     0.7833061     0.7833061
Ga       1.6981938     4.1796937     3.2648060
Ga       4.1796937     3.2648060     1.6981938
Ga       3.2648060     1.6981938     4.1796937
end atoms_cart

mp_grid =     7     7     7

begin kpoints
      0.000000000000      0.000000000000      0.000000000000
      0.142857142857      0.000000000000      0.000000000000
      0.285714285714      0.000000000000      0.000000000000
      0.428571428571      0.000000000000      0.000000000000
     -0.428571428571      0.000000000000      0.000000000000
     -0.285714285714      0.000000000000      0.000000000000
     -0.142857142857      0.000000000000      0.000000000000
      0.000000000000      0.142857142857      0.000000000000
      0.142857142857      0.142857142857      0.000000000000
      0.285714285714      0.142857142857      0.000000000000
      0.428571428571      0.142857142857      0.000000000000
     -0.428571428571      0.142857142857      0.000000000000
     -0.285714285714      0.142857142857      0.000000000000
     -0.142857142857      0.142857142857      0.000000000000
      0.000000000000      0.285714285714      0.000000000000
      0.142857142857      0.285714285714      0.000000000000
      0.285714285714      0.285714285714      0.000000000000
      0.428571428571      0.285714285714      0.000000000000
     -0.428571428571      0.285714285714      0.000000000000
     -0.285714285714      0.285714285714      0.000000000000
     -0.142857142857      0.285714285714      0.000000000000
      0.000000000000      0.428571428571      0.000000000000
      0.142857142857      0.428571428571      0.000000000000
      0.285714285714      0.428571428571      0.000000000000
      0.428571428571      0.428571428571      0.000000000000
     -0.428571428571      0.428571428571      0.000000000000
     -0.285714285714      0.428571428571      0.000000000000
     -0.142857142857      0.428571428571      0.000000000000
      0.000000000000     -0.428571428571      0.000000000000
      0.142857142857     -0.428571428571      0.000000000000
      0.285714285714     -0.428571428571      0.000000000000
      0.428571428571     -0.428571428571      0.000000000000
     -0.428571428571     -0.428571428571      0.000000000000
     -0.285714285714     -0.428571428571      0.000000000000
     -0.142857142857     -0.428571428571      0.000000000000
      0.000000000000     -0.285714285714      0.000000000000
      0.142857142857     -0.285714285714      0.000000000000
      0.285714285714     -0.285714285714      0.000000000000
      0.428571428571     -0.285714285714      0.000000000000
     -0.428571428571     -0.285714285714      0.000000000000
     -0.285714285714     -0.285714285714      0.000000000000
     -0.142857142857     -0.285714285714      0.000000000000
      0.000000000000     -0.142857142857      0.000000000000
      0.142857142857     -0.142857142857      0.000000000000
      0.285714285714     -0.142857142857      0.000000000000
      0.428571428571     -0.142857142857      0.000000000000
     -0.428571428571     -0.142857142857      0.000000000000
     -0.285714285714     -0.142857142857      0.000000000000
     -0.142857142857     -0.142857142857      0.000000000000
      0.000000000000      0.000000000000      0.142857142857
      0.142857142857      0.000000000000      0.142857142857
      0.285714285714      0.000000000000      0.142857142857
      0.428571428571      0.000000000000      0.142857142857
     -0.428571428571      0.000000000000      0.142857142857
     -0.285714285714      0.000000000000      0.142857142857
     -0.142857142857      0.000000000000      0.142857142857
      0.000000000000      0.142857142857      0.142857142857
      0.142857142857      0.142857142857      0.142857142857
      0.285714285714      0.142857142857      0.142857142857
      0.428571428571      0.142857142857      0.142857142857
     -0.428571428571      0.142857142857      0.142857142857
     -0.285714285714      0.142857142857      0.142857142857
     -0.142857142857      0.142857142857      0.142857142857
      0.000000000000      0.285714285714      0.142857142857
      0.142857142857      0.285714285714      0.142857142857
      0.285714285714      0.285714285714      0.142857142857
      0.428571428571      0.285714285714      0.142857142857
     -0.428571428571      0.285714285714      0.142857142857
     -0.285714285714      0.285714285714      0.142857142857
     -0.142857142857      0.285714285714      0.142857142857
      0.000000000000      0.428571428571      0.142857142857
      0.142857142857      0.428571428571      0.142857142857
      0.285714285714      0.428571428571      0.142857142857
      0.428571428571      0.428571428571      0.142857142857
     -0.428571428571      0.428571428571      0.142857142857
     -0.285714285714      0.428571428571      0.142857142857
     -0.142857142857      0.428571428571      0.142857142857
      0.000000000000     -0.428571428571      0.142857142857
      0.142857142857     -0.428571428571      0.142857142857
      0.285714285714     -0.428571428571      0.142857142857
      0.428571428571     -0.428571428571      0.142857142857
     -0.428571428571     -0.428571428571      0.142857142857
     -0.285714285714     -0.428571428571      0.142857142857
     -0.142857142857     -0.428571428571      0.142857142857
      0.000000000000     -0.285714285714      0.142857142857
      0.142857142857     -0.285714285714      0.142857142857
      0.285714285714     -0.285714285714      0.142857142857
      0.428571428571     -0.285714285714      0.142857142857
     -0.428571428571     -0.285714285714      0.142857142857
     -0.285714285714     -0.285714285714      0.142857142857
     -0.142857142857     -0.285714285714      0.142857142857
      0.000000000000     -0.142857142857      0.142857142857
      0.142857142857     -0.142857142857      0.142857142857
      0.285714285714     -0.142857142857      0.142857142857
      0.428571428571     -0.142857142857      0.142857142857
     -0.428571428571     -0.142857142857      0.142857142857
     -0.285714285714     -0.142857142857      0.142857142857
     -0.142857142857     -0.142857142857      0.142857142857
      0.000000000000      0.000000000000      0.285714285714
      0.142857142857      0.000000000000      0.285714285714
      0.285714285714      0.000000000000      0.285714285714
      0.428571428571      0.000000000000      0.285714285714
     -0.428571428571      0.000000000000      0.285714285714
     -0.285714285714      0.000000000000      0.285714285714
     -0.142857142857      0.000000000000      0.285714285714
      0.000000000000      0.142857142857      0.285714285714
      0.142857142857      0.142857142857      0.285714285714
      0.285714285714      0.142857142857      0.285714285714
      0.428571428571      0.142857142857      0.285714285714
     -0.428571428571      0.142857142857      0.285714285714
     -0.285714285714      0.142857142857      0.285714285714
     -0.142857142857      0.142857142857      0.285714285714
      0.000000000000      0.285714285714      0.285714285714
      0.142857142857      0.285714285714      0.285714285714
      0.285714285714      0.285714285714      0.285714285714
      0.428571428571      0.285714285714      0.285714285714
     -0.428571428571      0.285714285714      0.285714285714
     -0.285714285714      0.285714285714      0.285714285714
     -0.142857142857      0.285714285714      0.285714285714
      0.000000000000      0.428571428571      0.285714285714
      0.142857142857      0.428571428571      0.285714285714
      0.285714285714      0.428571428571      0.285714285714
      0.428571428571      0.428571428571      0.285714285714
     -0.428571428571      0.428571428571      0.285714285714
     -0.285714285714      0.428571428571      0.285714285714
     -0.142857142857      0.428571428571      0.285714285714
      0.000000000000     -0.428571428571      0.285714285714
      0.142857142857     -0.428571428571      0.285714285714
      0.285714285714     -0.428571428571      0.285714285714
      0.428571428571     -0.428571428571      0.285714285714
     -0.428571428571     -0.428571428571      0.285714285714
     -0.285714285714     -0.428571428571      0.285714285714
     -0.142857142857     -0.428571428571      0.285714285714
      0.000000000000     -0.285714285714      0.285714285714
      0.142857142857     -0.285714285714      0.285714285714
      0.285714285714     -0.285714285714      0.285714285714
      0.428571428571     -0.285714285714      0.285714285714
     -0.428571428571     -0.285714285714      0.285714285714
     -0.285714285714     -0.285714285714      0.285714285714
     -0.142857142857     -0.285714285714      0.285714285714
      0.000000000000     -0.142857142857      0.285714285714
      0.142857142857     -0.142857142857      0.285714285714
      0.285714285714     -0.142857142857      0.285714285714
      0.428571428571     -0.142857142857      0.285714285714
     -0.428571428571     -0.142857142857      0.285714285714
     -0.285714285714     -0.142857142857      0.285714285714
     -0.142857142857     -0.142857142857      0.285714285714
      0.000000000000      0.000000000000      0.428571428571
      0.142857142857      0.000000000000      0.428571428571
      0.285714285714      0.000000000000      0.428571428571
      0.428571428571      0.000000000000      0.428571428571
     -0.428571428571      0.000000000000      0.428571428571
     -0.285714285714      0.000000000000      0.428571428571
     -0.142857142857      0.000000000000      0.428571428571
      0.000000000000      0.142857142857      0.428571428571
      0.142857142857      0.142857142857      0.428571428571
      0.285714285714      0.142857142857      0.428571428571
      0.428571428571      0.142857142857      0.428571428571
     -0.428571428571      0.142857142857      0.428571428571
     -0.285714285714      0.142857142857      0.428571428571
     -0.142857142857      0.142857142857      0.428571428571
      0.000000000000      0.285714285714      0.428571428571
      0.142857142857      0.285714285714      0.428571428571
      0.285714285714      0.285714285714      0.428571428571
      0.428571428571      0.285714285714      0.428571428571
     -0.428571428571      0.285714285714      0.428571428571
     -0.285714285714      0.285714285714      0.428571428571
     -0.142857142857      0.285714285714      0.428571428571
      0.000000000000      0.428571428571      0.428571428571
      0.142857142857      0.428571428571      0.428571428571
      0.285714285714      0.428571428571      0.428571428571
      0.428571428571      0.428571428571      0.428571428571
     -0.428571428571      0.428571428571      0.428571428571
     -0.285714285714      0.428571428571      0.428571428571
     -0.142857142857      0.428571428571      0.428571428571
      0.000000000000     -0.428571428571      0.428571428571
      0.142857142857     -0.428571428571      0.428571428571
      0.285714285714     -0.428571428571      0.428571428571
      0.428571428571     -0.428571428571      0.428571428571
     -0.428571428571     -0.428571428571      0.428571428571
     -0.285714285714     -0.428571428571      0.428571428571
     -0.142857142857     -0.428571428571      0.428571428571
      0.000000000000     -0.285714285714      0.428571428571
      0.142857142857     -0.285714285714      0.428571428571
      0.285714285714     -0.285714285714      0.428571428571
      0.428571428571     -0.285714285714      0.428571428571
     -0.428571428571     -0.285714285714      0.428571428571
     -0.285714285714     -0.285714285714      0.428571428571
     -0.142857142857     -0.285714285714      0.428571428571
      0.000000000000     -0.142857142857      0.428571428571
      0.142857142857     -0.142857142857      0.428571428571
      0.285714285714     -0.142857142857      0.428571428571
      0.428571428571     -0.142857142857      0.428571428571
     -0.428571428571     -0.142857142857      0.428571428571
     -0.285714285714     -0.142857142857      0.428571428571
     -0.142857142857     -0.142857142857      0.428571428571
      0.000000000000      0.000000000000     -0.428571428571
      0.142857142857      0.000000000000     -0.428571428571
      0.285714285714      0.000000000000     -0.428571428571
      0.428571428571      0.000000000000     -0.428571428571
     -0.428571428571      0.000000000000     -0.428571428571
     -0.285714285714      0.000000000000     -0.428571428571
     -0.142857142857      0.000000000000     -0.428571428571
      0.000000000000      0.142857142857     -0.428571428571
      0.142857142857      0.142857142857     -0.428571428571
      0.285714285714      0.142857142857     -0.428571428571
      0.428571428571      0.142857142857     -0.428571428571
     -0.428571428571      0.142857142857     -0.428571428571
     -0.285714285714      0.142857142857     -0.428571428571
     -0.142857142857      0.142857142857     -0.428571428571
      0.000000000000      0.285714285714     -0.428571428571
      0.142857142857      0.285714285714     -0.428571428571
      0.285714285714      0.285714285714     -0.428571428571
      0.428571428571      0.285714285714     -0.428571428571
     -0.428571428571      0.285714285714     -0.428571428571
     -0.285714285714      0.285714285714     -0.428571428571
     -0.142857142857      0.285714285714     -0.428571428571
      0.000000000000      0.428571428571     -0.428571428571
      0.142857142857      0.428571428571     -0.428571428571
      0.285714285714      0.428571428571     -0.428571428571
      0.428571428571      0.428571428571     -0.428571428571
     -0.428571428571      0.428571428571     -0.428571428571
     -0.285714285714      0.428571428571     -0.428571428571
     -0.142857142857      0.428571428571     -0.428571428571
      0.000000000000     -0.428571428571     -0.428571428571
      0.142857142857     -0.428571428571     -0.428571428571
      0.285714285714     -0.428571428571     -0.428571428571
      0.428571428571     -0.428571428571     -0.428571428571
     -0.428571428571     -0.428571428571     -0.428571428571
     -0.285714285714     -0.428571428571     -0.428571428571
     -0.142857142857     -0.428571428571     -0.428571428571
      0.000000000000     -0.285714285714     -0.428571428571
      0.142857142857     -0.285714285714     -0.428571428571
      0.285714285714     -0.285714285714     -0.428571428571
      0.428571428571     -0.285714285714     -0.428571428571
     -0.428571428571     -0.285714285714     -0.428571428571
     -0.285714285714     -0.285714285714     -0.428571428571
     -0.142857142857     -0.285714285714     -0.428571428571
      0.000000000000     -0.142857142857     -0.428571428571
      0.142857142857     -0.142857142857     -0.428571428571
      0.285714285714     -0.142857142857     -0.428571428571
      0.428571428571     -0.142857142857     -0.428571428571
     -0.428571428571     -0.142857142857     -0.428571428571
     -0.285714285714     -0.142857142857     -0.428571428571
     -0.142857142857     -0.142857142857     -0.428571428571
      0.000000000000      0.000000000000     -0.285714285714
      0.142857142857      0.000000000000     -0.285714285714
      0.285714285714      0.000000000000     -0.285714285714
      0.428571428571      0.000000000000     -0.285714285714
     -0.428571428571      0.000000000000     -0.285714285714
     -0.285714285714      0.000000000000     -0.285714285714
     -0.142857142857      0.000000000000     -0.285714285714
      0.000000000000      0.142857142857     -0.285714285714
      0.142857142857      0.142857142857     -0.285714285714
      0.285714285714      0.142857142857     -0.285714285714
      0.428571428571      0.142857142857     -0.285714285714
     -0.428571428571      0.142857142857     -0.285714285714
     -0.285714285714      0.142857142857     -0.285714285714
     -0.142857142857      0.142857142857     -0.285714285714
      0.000000000000      0.285714285714     -0.285714285714
      0.142857142857      0.285714285714     -0.285714285714
      0.285714285714      0.285714285714     -0.285714285714
      0.428571428571      0.285714285714     -0.285714285714
     -0.428571428571      0.285714285714     -0.285714285714
     -0.285714285714      0.285714285714     -0.285714285714
     -0.142857142857      0.285714285714     -0.285714285714
      0.000000000000      0.428571428571     -0.285714285714
      0.142857142857      0.428571428571     -0.285714285714
      0.285714285714      0.428571428571     -0.285714285714
      0.428571428571      0.428571428571     -0.285714285714
     -0.428571428571      0.428571428571     -0.285714285714
     -0.285714285714      0.428571428571     -0.285714285714
     -0.142857142857      0.428571428571     -0.285714285714
      0.000000000000     -0.428571428571     -0.285714285714
      0.142857142857     -0.428571428571     -0.285714285714
      0.285714285714     -0.428571428571     -0.285714285714
      0.428571428571     -0.428571428571     -0.285714285714
     -0.428571428571     -0.428571428571     -0.285714285714
     -0.285714285714     -0.428571428571     -0.285714285714
     -0.142857142857     -0.428571428571     -0.285714285714
      0.000000000000     -0.285714285714     -0.285714285714
      0.142857142857     -0.285714285714     -0.285714285714
      0.285714285714     -0.285714285714     -0.285714285714
      0.428571428571     -0.285714285714     -0.285714285714
     -0.428571428571     -0.285714285714     -0.285714285714
     -0.285714285714     -0.285714285714     -0.285714285714
     -0.142857142857     -0.285714285714     -0.285714285714
      0.000000000000     -0.142857142857     -0.285714285714
      0.142857142857     -0.142857142857     -0.285714285714
      0.285714285714     -0.142857142857     -0.285714285714
      0.428571428571     -0.142857142857     -0.285714285714
     -0.428571428571     -0.142857142857     -0.285714285714
     -0.285714285714     -0.142857142857     -0.285714285714
     -0.142857142857     -0.142857142857     -0.285714285714
      0.000000000000      0.000000000000     -0.142857142857
      0.142857142857      0.000000000000     -0.142857142857
      0.285714285714      0.000000000000     -0.142857142857
      0.428571428571      0.000000000000     -0.142857142857
     -0.428571428571      0.000000000000     -0.142857142857
     -0.285714285714      0.000000000000     -0.142857142857
     -0.142857142857      0.000000000000     -0.142857142857
      0.000000000000      0.142857142857     -0.142857142857
      0.142857142857      0.142857142857     -0.142857142857
      0.285714285714      0.142857142857     -0.142857142857
      0.428571428571      0.142857142857     -0.142857142857
     -0.428571428571      0.142857142857     -0.142857142857
     -0.285714285714      0.142857142857     -0.142857142857
     -0.142857142857      0.142857142857     -0.142857142857
      0.000000000000      0.285714285714     -0.142857142857
      0.142857142857      0.285714285714     -0.142857142857
      0.285714285714      0.285714285714     -0.142857142857
      0.428571428571      0.285714285714     -0.142857142857
     -0.428571428571      0.285714285714     -0.142857142857
     -0.285714285714      0.285714285714     -0.142857142857
     -0.142857142857      0.285714285714     -0.142857142857
      0.000000000000      0.428571428571     -0.142857142857
      0.142857142857      0.428571428571     -0.142857142857
      0.285714285714      0.428571428571     -0.142857142857
      0.428571428571      0.428571428571     -0.142857142857
     -0.428571428571      0.428571428571     -0.142857142857
     -0.285714285714      0.428571428571     -0.142857142857
     -0.142857142857      0.428571428571     -0.142857142857
      0.000000000000     -0.428571428571     -0.142857142857
      0.142857142857     -0.428571428571     -0.142857142857
      0.285714285714     -0.428571428571     -0.142857142857
      0.428571428571     -0.428571428571     -0.142857142857
     -0.428571428571     -0.428571428571     -0.142857142857
     -0.285714285714     -0.428571428571     -0.142857142857
     -0.142857142857     -0.428571428571     -0.142857142857
      0.000000000000     -0.285714285714     -0.142857142857
      0.142857142857     -0.285714285714     -0.142857142857
      0.285714285714     -0.285714285714     -0.142857142857
      0.428571428571     -0.285714285714     -0.142857142857
     -0.428571428571     -0.285714285714     -0.142857142857
     -0.285714285714     -0.285714285714     -0.142857142857
     -0.142857142857     -0.285714285714     -0.142857142857
      0.000000000000     -0.142857142857     -0.142857142857
      0.142857142857     -0.142857142857     -0.142857142857
      0.285714285714     -0.142857142857     -0.142857142857
      0.428571428571     -0.142857142857     -0.142857142857
     -0.428571428571     -0.142857142857     -0.142857142857
     -0.285714285714     -0.142857142857     -0.142857142857
     -0.142857142857     -0.142857142857     -0.142857142857
end kpoints
